252480.31,18.37,20.12
257415.98,18.02,19.73
262359.11,17.68,19.36
257806.77,17.99,19.7
257994.62,17.98,19.69
248755.2,18.64,20.42
247571.81,18.73,20.52
258610.95,17.93,19.64
268459.54,17.27,18.92
262158.04,17.69,19.38
251872.72,18.41,20.17
252031.93,18.4,20.15
263767.66,17.58,19.26
259792.74,17.85,19.55
256309.66,18.09,19.82
264528.29,17.53,19.2
259976.88,17.84,19.54
256777.74,18.06,19.78
254406.11,18.23,19.97
262770.73,17.65,19.33
